Welcome to the CBC MILP Solver
Version: Devel (unstable)
Build Date: Feb  6 2022
command line - -import /home/danilo/psp-janniele/J30/j3062/j3062_8.lp -timeM elapsed -seconds 10800 -solve -quit (default strategy 1)
seconds was changed from 1e+08 to 10800
Continuous objective value is 0 - 0.11702 seconds
Cgl0002I 20 variables fixed
Cgl0003I 0 fixed, 0 tightened bounds, 8 strengthened rows, 0 substitutions
Cgl0003I 0 fixed, 0 tightened bounds, 8 strengthened rows, 0 substitutions
Cgl0003I 0 fixed, 0 tightened bounds, 8 strengthened rows, 0 substitutions
Cgl0003I 0 fixed, 0 tightened bounds, 7 strengthened rows, 0 substitutions
Cgl0003I 0 fixed, 0 tightened bounds, 7 strengthened rows, 0 substitutions
Cgl0003I 0 fixed, 0 tightened bounds, 7 strengthened rows, 0 substitutions
Cgl0003I 0 fixed, 0 tightened bounds, 6 strengthened rows, 0 substitutions
Cgl0003I 0 fixed, 0 tightened bounds, 5 strengthened rows, 0 substitutions
Cgl0003I 0 fixed, 0 tightened bounds, 5 strengthened rows, 0 substitutions
Cgl0004I processed model has 259 rows, 884 columns (884 integer (884 of which binary)) and 14098 elements
Coin3009W Conflict graph built in 0.740 seconds, density: 2.835%
Cgl0015I Clique Strengthening extended 0 cliques, 0 were dominated
Cbc0045I No integer variables out of 884 objects (884 integer) have costs
Cbc0045I branch on satisfied N create fake objective Y random cost Y
Cbc0038I Initial state - 96 integers unsatisfied sum - 23.6739
Cbc0038I Pass   1: suminf.    3.30836 (27) obj. 0 iterations 107
Cbc0038I Pass   2: suminf.    3.12938 (25) obj. 0 iterations 23
Cbc0038I Pass   3: suminf.    5.10414 (23) obj. 0 iterations 149
Cbc0038I Pass   4: suminf.    4.97213 (22) obj. 0 iterations 29
Cbc0038I Pass   5: suminf.    1.72143 (8) obj. 0 iterations 99
Cbc0038I Pass   6: suminf.    1.22143 (8) obj. 0 iterations 53
Cbc0038I Pass   7: suminf.    3.90993 (17) obj. 0 iterations 102
Cbc0038I Pass   8: suminf.    3.15661 (15) obj. 0 iterations 75
Cbc0038I Pass   9: suminf.    2.25714 (7) obj. 0 iterations 26
Cbc0038I Pass  10: suminf.    2.25714 (7) obj. 0 iterations 43
Cbc0038I Pass  11: suminf.    1.25714 (6) obj. 0 iterations 63
Cbc0038I Pass  12: suminf.    1.22143 (8) obj. 0 iterations 39
Cbc0038I Pass  13: suminf.    3.90993 (17) obj. 0 iterations 89
Cbc0038I Pass  14: suminf.    3.15661 (15) obj. 0 iterations 69
Cbc0038I Pass  15: suminf.    2.25714 (7) obj. 0 iterations 33
Cbc0038I Pass  16: suminf.    2.25714 (7) obj. 0 iterations 32
Cbc0038I Pass  17: suminf.    1.25714 (6) obj. 0 iterations 72
Cbc0038I Pass  18: suminf.    1.22143 (8) obj. 0 iterations 34
Cbc0038I Pass  19: suminf.    3.90993 (17) obj. 0 iterations 88
Cbc0038I Pass  20: suminf.    3.15661 (15) obj. 0 iterations 88
Cbc0038I Pass  21: suminf.    2.25714 (7) obj. 0 iterations 48
Cbc0038I Pass  22: suminf.    2.25714 (7) obj. 0 iterations 32
Cbc0038I Pass  23: suminf.    1.25714 (6) obj. 0 iterations 93
Cbc0038I Pass  24: suminf.    1.22143 (8) obj. 0 iterations 23
Cbc0038I Pass  25: suminf.    3.90993 (17) obj. 0 iterations 80
Cbc0038I Pass  26: suminf.    3.15661 (15) obj. 0 iterations 81
Cbc0038I Pass  27: suminf.    2.25714 (7) obj. 0 iterations 23
Cbc0038I Pass  28: suminf.    2.25714 (7) obj. 0 iterations 30
Cbc0038I Pass  29: suminf.    1.25714 (6) obj. 0 iterations 82
Cbc0038I Pass  30: suminf.    1.22143 (8) obj. 0 iterations 39
Cbc0038I Pass  31: suminf.    3.90993 (17) obj. 0 iterations 107
Cbc0038I Pass  32: suminf.    3.15661 (15) obj. 0 iterations 99
Cbc0038I Pass  33: suminf.    2.25714 (7) obj. 0 iterations 34
Cbc0038I Pass  34: suminf.    2.25714 (7) obj. 0 iterations 26
Cbc0038I Pass  35: suminf.    1.25714 (6) obj. 0 iterations 82
Cbc0038I Pass  36: suminf.    1.22143 (8) obj. 0 iterations 43
Cbc0038I Pass  37: suminf.    3.90993 (17) obj. 0 iterations 99
Cbc0038I Pass  38: suminf.    3.15661 (15) obj. 0 iterations 78
Cbc0038I Pass  39: suminf.    2.25714 (7) obj. 0 iterations 23
Cbc0038I Pass  40: suminf.    2.25714 (7) obj. 0 iterations 31
Cbc0038I Pass  41: suminf.    1.25714 (6) obj. 0 iterations 74
Cbc0038I Pass  42: suminf.    1.22143 (8) obj. 0 iterations 44
Cbc0038I Pass  43: suminf.    3.90993 (17) obj. 0 iterations 107
Cbc0038I Pass  44: suminf.    3.15661 (15) obj. 0 iterations 97
Cbc0038I Pass  45: suminf.    2.25714 (7) obj. 0 iterations 34
Cbc0038I Pass  46: suminf.    2.25714 (7) obj. 0 iterations 31
Cbc0038I Pass  47: suminf.    1.25714 (6) obj. 0 iterations 85
Cbc0038I Pass  48: suminf.    1.22143 (8) obj. 0 iterations 48
Cbc0038I Pass  49: suminf.    3.90993 (17) obj. 0 iterations 125
Cbc0038I Pass  50: suminf.    3.15661 (15) obj. 0 iterations 68
Cbc0038I Pass  51: suminf.    2.25714 (7) obj. 0 iterations 41
Cbc0038I Pass  52: suminf.    2.25714 (7) obj. 0 iterations 30
Cbc0038I Pass  53: suminf.    1.25714 (6) obj. 0 iterations 71
Cbc0038I Pass  54: suminf.    1.22143 (8) obj. 0 iterations 40
Cbc0038I Pass  55: suminf.    3.90993 (17) obj. 0 iterations 82
Cbc0038I Pass  56: suminf.    3.15661 (15) obj. 0 iterations 98
Cbc0038I Pass  57: suminf.    2.25714 (7) obj. 0 iterations 27
Cbc0038I Pass  58: suminf.    2.25714 (7) obj. 0 iterations 29
Cbc0038I Pass  59: suminf.    1.25714 (6) obj. 0 iterations 69
Cbc0038I Pass  60: suminf.    1.22143 (8) obj. 0 iterations 37
Cbc0038I Pass  61: suminf.    3.90993 (17) obj. 0 iterations 85
Cbc0038I Pass  62: suminf.    3.15661 (15) obj. 0 iterations 86
Cbc0038I Pass  63: suminf.    2.25714 (7) obj. 0 iterations 27
Cbc0038I Pass  64: suminf.    2.25714 (7) obj. 0 iterations 31
Cbc0038I Pass  65: suminf.    1.25714 (6) obj. 0 iterations 69
Cbc0038I Pass  66: suminf.    1.22143 (8) obj. 0 iterations 31
Cbc0038I Pass  67: suminf.    3.90993 (17) obj. 0 iterations 75
Cbc0038I Pass  68: suminf.    3.15661 (15) obj. 0 iterations 79
Cbc0038I Pass  69: suminf.    2.25714 (7) obj. 0 iterations 24
Cbc0038I Pass  70: suminf.    2.25714 (7) obj. 0 iterations 27
Cbc0038I Pass  71: suminf.    1.25714 (6) obj. 0 iterations 74
Cbc0038I Pass  72: suminf.    1.22143 (8) obj. 0 iterations 44
Cbc0038I Pass  73: suminf.    3.90993 (17) obj. 0 iterations 78
Cbc0038I Pass  74: suminf.    3.15661 (15) obj. 0 iterations 96
Cbc0038I Pass  75: suminf.    2.25714 (7) obj. 0 iterations 26
Cbc0038I Pass  76: suminf.    2.25714 (7) obj. 0 iterations 28
Cbc0038I Pass  77: suminf.    1.25714 (6) obj. 0 iterations 74
Cbc0038I Pass  78: suminf.    1.22143 (8) obj. 0 iterations 38
Cbc0038I Pass  79: suminf.    3.90993 (17) obj. 0 iterations 93
Cbc0038I Pass  80: suminf.    3.15661 (15) obj. 0 iterations 82
Cbc0038I Pass  81: suminf.    2.25714 (7) obj. 0 iterations 29
Cbc0038I Pass  82: suminf.    2.25714 (7) obj. 0 iterations 28
Cbc0038I Pass  83: suminf.    1.25714 (6) obj. 0 iterations 60
Cbc0038I Pass  84: suminf.    1.22143 (8) obj. 0 iterations 30
Cbc0038I Pass  85: suminf.    3.90993 (17) obj. 0 iterations 82
Cbc0038I Pass  86: suminf.    3.15661 (15) obj. 0 iterations 93
Cbc0038I Pass  87: suminf.    2.25714 (7) obj. 0 iterations 28
Cbc0038I Pass  88: suminf.    2.25714 (7) obj. 0 iterations 29
Cbc0038I Pass  89: suminf.    1.25714 (6) obj. 0 iterations 77
Cbc0038I Pass  90: suminf.    1.22143 (8) obj. 0 iterations 52
Cbc0038I Pass  91: suminf.    3.90993 (17) obj. 0 iterations 70
Cbc0038I Pass  92: suminf.    3.15661 (15) obj. 0 iterations 93
Cbc0038I Pass  93: suminf.    2.25714 (7) obj. 0 iterations 25
Cbc0038I Pass  94: suminf.    2.25714 (7) obj. 0 iterations 27
Cbc0038I Pass  95: suminf.    1.25714 (6) obj. 0 iterations 75
Cbc0038I Pass  96: suminf.    1.22143 (8) obj. 0 iterations 40
Cbc0038I Pass  97: suminf.    3.90993 (17) obj. 0 iterations 95
Cbc0038I Pass  98: suminf.    3.15661 (15) obj. 0 iterations 89
Cbc0038I Pass  99: suminf.    2.25714 (7) obj. 0 iterations 22
Cbc0038I Pass 100: suminf.   12.78705 (48) obj. 0 iterations 221
Cbc0038I No solution found this major pass
Cbc0038I Before mini branch and bound, 756 integers at bound fixed and 0 continuous
Cbc0038I Full problem 259 rows 884 columns, reduced to 151 rows 112 columns
Cbc0038I Mini branch and bound did not improve solution (4.41 seconds)
Cbc0038I Full problem 260 rows 884 columns, reduced to 259 rows 884 columns - too large
Cbc0038I After 4.57 seconds - Feasibility pump exiting - took 1.94 seconds
Cbc0031I 35 added rows had average density of 172.62857
Cbc0013I At root node, 35 cuts changed objective from 0 to 0 in 10 passes
Cbc0014I Cut generator 0 (Probing) - 58 row cuts average 4.0 elements, 0 column cuts (0 active)  in 1.010 seconds - new frequency is -100
Cbc0014I Cut generator 1 (Gomory) - 152 row cuts average 800.1 elements, 0 column cuts (0 active)  in 0.492 seconds - new frequency is -100
Cbc0014I Cut generator 2 (Knapsack) - 9 row cuts average 14.2 elements, 0 column cuts (0 active)  in 0.072 seconds - new frequency is -100
Cbc0014I Cut generator 3 (Clique) - 33 row cuts average 52.5 elements, 0 column cuts (0 active)  in 0.030 seconds - new frequency is -100
Cbc0014I Cut generator 4 (OddWheel) - 1 row cuts average 32.0 elements, 0 column cuts (0 active)  in 0.049 seconds - new frequency is -100
Cbc0014I Cut generator 5 (MixedIntegerRounding2) - 39 row cuts average 79.2 elements, 0 column cuts (0 active)  in 0.061 seconds - new frequency is -100
Cbc0014I Cut generator 6 (FlowCover) - 0 row cuts average 0.0 elements, 0 column cuts (0 active)  in 0.004 seconds - new frequency is -100
Cbc0014I Cut generator 7 (TwoMirCuts) - 49 row cuts average 66.2 elements, 0 column cuts (0 active)  in 0.083 seconds - new frequency is -100
Cbc0014I Cut generator 8 (ZeroHalf) - 84 row cuts average 108.8 elements, 0 column cuts (0 active)  in 0.058 seconds - new frequency is -100
Cbc0010I After 0 nodes, 1 on tree, 1e+50 best solution, best possible 0 (7.99 seconds)
Cbc0010I After 4 nodes, 5 on tree, 1e+50 best solution, best possible 0 (8.73 seconds)
Cbc0010I After 12 nodes, 11 on tree, 1e+50 best solution, best possible 0 (9.43 seconds)
Cbc0010I After 47 nodes, 13 on tree, 1e+50 best solution, best possible 0 (10.13 seconds)
Cbc0010I After 90 nodes, 15 on tree, 1e+50 best solution, best possible 0 (10.84 seconds)
Cbc0010I After 186 nodes, 14 on tree, 1e+50 best solution, best possible 0 (11.55 seconds)
Cbc0010I After 282 nodes, 18 on tree, 1e+50 best solution, best possible 0 (12.25 seconds)
Cbc0010I After 363 nodes, 11 on tree, 1e+50 best solution, best possible 0 (12.96 seconds)
Cbc0010I After 434 nodes, 15 on tree, 1e+50 best solution, best possible 0 (13.66 seconds)
Cbc0010I After 466 nodes, 16 on tree, 1e+50 best solution, best possible 0 (14.36 seconds)
Cbc0004I Integer solution of 0 found after 19902 iterations and 522 nodes (14.79 seconds)
Cbc0001I Search completed - best objective 0, took 19902 iterations and 522 nodes (14.79 seconds)
Cbc0032I Strong branching done 1252 times (20072 iterations), fathomed 4 nodes and fixed 44 variables
Cbc0035I Maximum depth 42, 0 variables fixed on reduced cost
Cuts at root node changed objective from 0 to 0
Probing was tried 10 times and created 58 cuts of which 0 were active after adding rounds of cuts (1.00962 seconds)
Gomory was tried 10 times and created 152 cuts of which 0 were active after adding rounds of cuts (0.491572 seconds)
Knapsack was tried 10 times and created 9 cuts of which 0 were active after adding rounds of cuts (0.07151 seconds)
Clique was tried 10 times and created 33 cuts of which 0 were active after adding rounds of cuts (0.029927 seconds)
OddWheel was tried 10 times and created 1 cuts of which 0 were active after adding rounds of cuts (0.049071 seconds)
MixedIntegerRounding2 was tried 10 times and created 39 cuts of which 0 were active after adding rounds of cuts (0.061338 seconds)
FlowCover was tried 10 times and created 0 cuts of which 0 were active after adding rounds of cuts (0.003718 seconds)
TwoMirCuts was tried 10 times and created 49 cuts of which 0 were active after adding rounds of cuts (0.08348 seconds)
ZeroHalf was tried 10 times and created 84 cuts of which 0 were active after adding rounds of cuts (0.058318 seconds)

Result - Optimal solution found
Objective value:                0
Enumerated nodes:               522
Total iterations:               19902
Time (CPU seconds):             14.6727
Time (Wallclock seconds):       14.8542
Total time (CPU seconds):       14.7061   (Wallclock seconds):       14.8857
